eval/18-encs/equiv_enc_514.smt2
; DUP1 DUP4 SHA3 SWAP3 SWAP1 SWAP3 => SWAP2 DUP3 DUP2 SHA3
(set-option :produce-proofs true)
; 
(set-info :status unknown)
(declare-fun storage_t ((_ BitVec 256) (_ BitVec 256) (_ BitVec 256) (_ BitVec 256) Int (_ BitVec 256)) (_ BitVec 256))
(declare-fun storage_s ((_ BitVec 256) (_ BitVec 256) (_ BitVec 256) (_ BitVec 256) Int (_ BitVec 256)) (_ BitVec 256))
(declare-fun exc_halt_t (Int) Bool)
(declare-fun exc_halt_s (Int) Bool)
(declare-fun stack_t ((_ BitVec 256) (_ BitVec 256) (_ BitVec 256) (_ BitVec 256) Int (_ BitVec 6)) (_ BitVec 256))
(declare-fun stack_s ((_ BitVec 256) (_ BitVec 256) (_ BitVec 256) (_ BitVec 256) Int (_ BitVec 6)) (_ BitVec 256))
(declare-fun sc_t (Int) (_ BitVec 6))
(declare-fun sc_s (Int) (_ BitVec 6))
(declare-fun used_gas_t ((_ BitVec 256) (_ BitVec 256) (_ BitVec 256) (_ BitVec 256) Int) Int)
(declare-fun used_gas_s ((_ BitVec 256) (_ BitVec 256) (_ BitVec 256) (_ BitVec 256) Int) Int)
(declare-fun f_SHA3 ((_ BitVec 256) (_ BitVec 256) (_ BitVec 256) (_ BitVec 256) (_ BitVec 256) (_ BitVec 256)) (_ BitVec 256))
(assert
 (exists ((x_0 (_ BitVec 256)) (x_1 (_ BitVec 256)) (x_2 (_ BitVec 256)) (x_SHA3_0 (_ BitVec 256)) )(let (($x11458 (forall ((w (_ BitVec 256)) )(let ((?x5413 (storage_t x_0 x_1 x_2 x_SHA3_0 4 w)))
 (let ((?x9088 (storage_s x_0 x_1 x_2 x_SHA3_0 6 w)))
 (= ?x9088 ?x5413))))
 ))
 (let (($x7854 (exc_halt_t 4)))
 (let (($x772 (exc_halt_s 6)))
 (let (($x4404 (= $x772 $x7854)))
 (let (($x8550 (forall ((n (_ BitVec 6)) )(let ((?x5106 (stack_t x_0 x_1 x_2 x_SHA3_0 4 n)))
 (let ((?x8978 (stack_s x_0 x_1 x_2 x_SHA3_0 6 n)))
 (let (($x8835 (= ?x8978 ?x5106)))
 (or (bvsle (sc_t 4) n) $x8835)))))
 ))
 (let ((?x4818 (sc_t 4)))
 (let ((?x926 (sc_s 6)))
 (let (($x7899 (= ?x926 ?x4818)))
 (let ((?x3385 (used_gas_t x_0 x_1 x_2 x_SHA3_0 0)))
 (let ((?x297 (used_gas_s x_0 x_1 x_2 x_SHA3_0 0)))
 (let (($x8506 (= ?x297 ?x3385)))
 (let (($x7629 (forall ((w (_ BitVec 256)) )(let ((?x5041 (storage_t x_0 x_1 x_2 x_SHA3_0 0 w)))
 (let ((?x8359 (storage_s x_0 x_1 x_2 x_SHA3_0 0 w)))
 (= ?x8359 ?x5041))))
 ))
 (let (($x56 (exc_halt_t 0)))
 (let (($x57 (exc_halt_s 0)))
 (let (($x58 (= $x57 $x56)))
 (let (($x10611 (forall ((n (_ BitVec 6)) )(let ((?x63 (sc_t 0)))
 (let (($x10511 (bvsle ?x63 n)))
 (let ((?x1891 (stack_t x_0 x_1 x_2 x_SHA3_0 0 n)))
 (let ((?x2801 (stack_s x_0 x_1 x_2 x_SHA3_0 0 n)))
 (let (($x3159 (= ?x2801 ?x1891)))
 (or $x3159 $x10511)))))))
 ))
 (let ((?x63 (sc_t 0)))
 (let ((?x72 (sc_s 0)))
 (let (($x73 (= ?x72 ?x63)))
 (let (($x2089 (= $x7854 (or (exc_halt_t 3) (not (bvsle (_ bv0 6) (bvadd (_ bv62 6) (sc_t 3))))))))
 (let (($x6231 (forall ((w (_ BitVec 256)) )(let ((?x8437 (storage_t x_0 x_1 x_2 x_SHA3_0 3 w)))
 (let ((?x5413 (storage_t x_0 x_1 x_2 x_SHA3_0 4 w)))
 (= ?x5413 ?x8437))))
 ))
 (let (($x4177 (forall ((n (_ BitVec 6)) )(let ((?x10057 (stack_t x_0 x_1 x_2 x_SHA3_0 3 n)))
 (let ((?x5106 (stack_t x_0 x_1 x_2 x_SHA3_0 4 n)))
 (or (bvsle (bvadd (_ bv62 6) (sc_t 3)) n) (= ?x5106 ?x10057)))))
 ))
 (let (($x11447 (= (used_gas_t x_0 x_1 x_2 x_SHA3_0 4) (+ 30 (used_gas_t x_0 x_1 x_2 x_SHA3_0 3)))))
 (let ((?x6438 (sc_t 3)))
 (let ((?x3265 (bvadd (_ bv63 6) ?x6438)))
 (let ((?x4695 (stack_t x_0 x_1 x_2 x_SHA3_0 3 ?x3265)))
 (let ((?x3419 (f_SHA3 x_0 x_1 x_2 x_SHA3_0 ?x4695 (stack_t x_0 x_1 x_2 x_SHA3_0 3 (bvadd (_ bv62 6) ?x6438)))))
 (let (($x2163 (exc_halt_t 2)))
 (let (($x7261 (or $x2163 (not (bvsle (_ bv0 6) (bvadd (_ bv62 6) (sc_t 2)))) (not (= ((_ extract 6 6) (bvadd (_ bv1 7) (concat (_ bv0 1) (sc_t 2)))) (_ bv0 1))))))
 (let (($x6783 (exc_halt_t 3)))
 (let (($x5179 (forall ((w (_ BitVec 256)) )(let ((?x3949 (storage_t x_0 x_1 x_2 x_SHA3_0 2 w)))
 (let ((?x8437 (storage_t x_0 x_1 x_2 x_SHA3_0 3 w)))
 (= ?x8437 ?x3949))))
 ))
 (let (($x3850 (forall ((n (_ BitVec 6)) )(let ((?x10427 (stack_t x_0 x_1 x_2 x_SHA3_0 2 n)))
 (let ((?x10057 (stack_t x_0 x_1 x_2 x_SHA3_0 3 n)))
 (or (= ?x10057 ?x10427) (bvsle (bvadd (_ bv62 6) (sc_t 2)) n)))))
 ))
 (let ((?x3649 (used_gas_t x_0 x_1 x_2 x_SHA3_0 3)))
 (let ((?x2714 (sc_t 2)))
 (let ((?x7428 (bvadd (_ bv63 6) ?x2714)))
 (let ((?x5627 (stack_t x_0 x_1 x_2 x_SHA3_0 2 ?x7428)))
 (let ((?x1655 (bvadd (_ bv62 6) ?x2714)))
 (let ((?x1736 (stack_t x_0 x_1 x_2 x_SHA3_0 2 ?x1655)))
 (let (($x9824 (not (= ((_ extract 6 6) (bvadd (_ bv1 7) (concat (_ bv0 1) (sc_t 1)))) (_ bv0 1)))))
 (let (($x8377 (exc_halt_t 1)))
 (let (($x9612 (forall ((w (_ BitVec 256)) )(let ((?x5505 (storage_t x_0 x_1 x_2 x_SHA3_0 1 w)))
 (let ((?x3949 (storage_t x_0 x_1 x_2 x_SHA3_0 2 w)))
 (= ?x3949 ?x5505))))
 ))
 (let (($x11171 (forall ((n (_ BitVec 6)) )(let ((?x11065 (stack_t x_0 x_1 x_2 x_SHA3_0 1 n)))
 (let ((?x10427 (stack_t x_0 x_1 x_2 x_SHA3_0 2 n)))
 (or (= ?x10427 ?x11065) (bvsle (bvadd (_ bv61 6) (sc_t 1)) n)))))
 ))
 (let (($x44 (= ?x2714 (bvadd (_ bv1 6) (sc_t 1)))))
 (let ((?x1539 (used_gas_t x_0 x_1 x_2 x_SHA3_0 2)))
 (let ((?x7154 (sc_t 1)))
 (let ((?x960 (bvadd (_ bv63 6) ?x7154)))
 (let ((?x7247 (stack_t x_0 x_1 x_2 x_SHA3_0 1 ?x960)))
 (let ((?x4585 (bvadd (_ bv62 6) ?x7154)))
 (let ((?x1819 (stack_t x_0 x_1 x_2 x_SHA3_0 1 ?x4585)))
 (let ((?x6994 (bvadd (_ bv61 6) ?x7154)))
 (let ((?x2458 (stack_t x_0 x_1 x_2 x_SHA3_0 1 ?x6994)))
 (let (($x9186 (forall ((w (_ BitVec 256)) )(let ((?x5041 (storage_t x_0 x_1 x_2 x_SHA3_0 0 w)))
 (let ((?x5505 (storage_t x_0 x_1 x_2 x_SHA3_0 1 w)))
 (= ?x5505 ?x5041))))
 ))
 (let (($x7420 (forall ((n (_ BitVec 6)) )(let ((?x1891 (stack_t x_0 x_1 x_2 x_SHA3_0 0 n)))
 (let ((?x11065 (stack_t x_0 x_1 x_2 x_SHA3_0 1 n)))
 (or (= ?x11065 ?x1891) (bvsle (bvadd (_ bv61 6) (sc_t 0)) n)))))
 ))
 (let (($x1908 (= $x772 (or (exc_halt_s 5) (not (bvsle (_ bv0 6) (bvadd (_ bv60 6) (sc_s 5))))))))
 (let (($x3785 (forall ((w (_ BitVec 256)) )(let ((?x6362 (storage_s x_0 x_1 x_2 x_SHA3_0 5 w)))
 (let ((?x9088 (storage_s x_0 x_1 x_2 x_SHA3_0 6 w)))
 (= ?x9088 ?x6362))))
 ))
 (let (($x2654 (forall ((n (_ BitVec 6)) )(let ((?x3625 (stack_s x_0 x_1 x_2 x_SHA3_0 5 n)))
 (let ((?x8978 (stack_s x_0 x_1 x_2 x_SHA3_0 6 n)))
 (or (= ?x8978 ?x3625) (bvsle (bvadd (_ bv60 6) (sc_s 5)) n)))))
 ))
 (let ((?x4319 (sc_s 5)))
 (let (($x2838 (= ?x926 ?x4319)))
 (let (($x7695 (= (used_gas_s x_0 x_1 x_2 x_SHA3_0 6) (+ 3 (used_gas_s x_0 x_1 x_2 x_SHA3_0 5)))))
 (let ((?x10059 (bvadd (_ bv62 6) ?x4319)))
 (let ((?x4251 (stack_s x_0 x_1 x_2 x_SHA3_0 5 ?x10059)))
 (let (($x1196 (= (stack_s x_0 x_1 x_2 x_SHA3_0 6 (bvadd (_ bv61 6) ?x926)) (stack_s x_0 x_1 x_2 x_SHA3_0 5 (bvadd (_ bv61 6) ?x4319)))))
 (let ((?x7641 (bvadd (_ bv63 6) ?x4319)))
 (let ((?x6015 (stack_s x_0 x_1 x_2 x_SHA3_0 5 ?x7641)))
 (let (($x8123 (= (stack_s x_0 x_1 x_2 x_SHA3_0 6 (bvadd (_ bv63 6) ?x926)) (stack_s x_0 x_1 x_2 x_SHA3_0 5 (bvadd (_ bv60 6) ?x4319)))))
 (let (($x11317 (exc_halt_s 5)))
 (let (($x7447 (= $x11317 (or (exc_halt_s 4) (not (bvsle (_ bv0 6) (bvadd (_ bv62 6) (sc_s 4))))))))
 (let (($x4454 (forall ((w (_ BitVec 256)) )(let ((?x7851 (storage_s x_0 x_1 x_2 x_SHA3_0 4 w)))
 (let ((?x6362 (storage_s x_0 x_1 x_2 x_SHA3_0 5 w)))
 (= ?x6362 ?x7851))))
 ))
 (let (($x698 (forall ((n (_ BitVec 6)) )(let ((?x9334 (stack_s x_0 x_1 x_2 x_SHA3_0 4 n)))
 (let ((?x3625 (stack_s x_0 x_1 x_2 x_SHA3_0 5 n)))
 (or (= ?x3625 ?x9334) (bvsle (bvadd (_ bv62 6) (sc_s 4)) n)))))
 ))
 (let ((?x10815 (used_gas_s x_0 x_1 x_2 x_SHA3_0 5)))
 (let ((?x4305 (sc_s 4)))
 (let ((?x3403 (bvadd (_ bv63 6) ?x4305)))
 (let ((?x6407 (stack_s x_0 x_1 x_2 x_SHA3_0 4 ?x3403)))
 (let (($x7172 (exc_halt_s 4)))
 (let (($x11773 (= $x7172 (or (exc_halt_s 3) (not (bvsle (_ bv0 6) (bvadd (_ bv60 6) (sc_s 3))))))))
 (let (($x11290 (forall ((w (_ BitVec 256)) )(let ((?x7867 (storage_s x_0 x_1 x_2 x_SHA3_0 3 w)))
 (let ((?x7851 (storage_s x_0 x_1 x_2 x_SHA3_0 4 w)))
 (= ?x7851 ?x7867))))
 ))
 (let (($x8452 (forall ((n (_ BitVec 6)) )(let ((?x7359 (stack_s x_0 x_1 x_2 x_SHA3_0 3 n)))
 (let ((?x9334 (stack_s x_0 x_1 x_2 x_SHA3_0 4 n)))
 (or (bvsle (bvadd (_ bv60 6) (sc_s 3)) n) (= ?x9334 ?x7359)))))
 ))
 (let ((?x275 (sc_s 3)))
 (let (($x4967 (= ?x4305 ?x275)))
 (let ((?x1591 (used_gas_s x_0 x_1 x_2 x_SHA3_0 4)))
 (let ((?x5260 (bvadd (_ bv62 6) ?x4305)))
 (let ((?x784 (stack_s x_0 x_1 x_2 x_SHA3_0 4 ?x5260)))
 (let (($x8232 (= (stack_s x_0 x_1 x_2 x_SHA3_0 4 (bvadd (_ bv61 6) ?x4305)) (stack_s x_0 x_1 x_2 x_SHA3_0 3 (bvadd (_ bv61 6) ?x275)))))
 (let ((?x1450 (bvadd (_ bv63 6) ?x275)))
 (let ((?x10702 (stack_s x_0 x_1 x_2 x_SHA3_0 3 ?x1450)))
 (let (($x292 (exc_halt_s 3)))
 (let (($x5125 (= $x292 (or (exc_halt_s 2) (not (bvsle (_ bv0 6) (bvadd (_ bv62 6) (sc_s 2))))))))
 (let (($x552 (forall ((w (_ BitVec 256)) )(let ((?x2096 (storage_s x_0 x_1 x_2 x_SHA3_0 2 w)))
 (let ((?x7867 (storage_s x_0 x_1 x_2 x_SHA3_0 3 w)))
 (= ?x7867 ?x2096))))
 ))
 (let (($x1334 (forall ((n (_ BitVec 6)) )(let ((?x11097 (stack_s x_0 x_1 x_2 x_SHA3_0 2 n)))
 (let ((?x7359 (stack_s x_0 x_1 x_2 x_SHA3_0 3 n)))
 (or (bvsle (bvadd (_ bv62 6) (sc_s 2)) n) (= ?x7359 ?x11097)))))
 ))
 (let ((?x7749 (used_gas_s x_0 x_1 x_2 x_SHA3_0 3)))
 (let ((?x218 (sc_s 2)))
 (let ((?x5751 (bvadd (_ bv63 6) ?x218)))
 (let ((?x8743 (stack_s x_0 x_1 x_2 x_SHA3_0 2 ?x5751)))
 (let ((?x7155 (f_SHA3 x_0 x_1 x_2 x_SHA3_0 ?x8743 (stack_s x_0 x_1 x_2 x_SHA3_0 2 (bvadd (_ bv62 6) ?x218)))))
 (let (($x189 (exc_halt_s 1)))
 (let (($x7472 (or $x189 (not (bvsle (_ bv0 6) (bvadd (_ bv60 6) (sc_s 1)))) (not (= ((_ extract 6 6) (bvadd (_ bv1 7) (concat (_ bv0 1) (sc_s 1)))) (_ bv0 1))))))
 (let (($x247 (exc_halt_s 2)))
 (let (($x4959 (forall ((w (_ BitVec 256)) )(let ((?x8598 (storage_s x_0 x_1 x_2 x_SHA3_0 1 w)))
 (let ((?x2096 (storage_s x_0 x_1 x_2 x_SHA3_0 2 w)))
 (= ?x2096 ?x8598))))
 ))
 (let (($x5929 (forall ((n (_ BitVec 6)) )(let ((?x1689 (stack_s x_0 x_1 x_2 x_SHA3_0 1 n)))
 (let ((?x11097 (stack_s x_0 x_1 x_2 x_SHA3_0 2 n)))
 (or (= ?x11097 ?x1689) (bvsle (bvadd (_ bv60 6) (sc_s 1)) n)))))
 ))
 (let ((?x9078 (used_gas_s x_0 x_1 x_2 x_SHA3_0 2)))
 (let ((?x154 (sc_s 1)))
 (let ((?x5347 (bvadd (_ bv63 6) ?x154)))
 (let ((?x5479 (stack_s x_0 x_1 x_2 x_SHA3_0 1 ?x5347)))
 (let (($x8741 (= (stack_s x_0 x_1 x_2 x_SHA3_0 2 (bvadd (_ bv62 6) ?x154)) (stack_s x_0 x_1 x_2 x_SHA3_0 1 (bvadd (_ bv62 6) ?x154)))))
 (let (($x9028 (= (stack_s x_0 x_1 x_2 x_SHA3_0 2 (bvadd (_ bv61 6) ?x154)) (stack_s x_0 x_1 x_2 x_SHA3_0 1 (bvadd (_ bv61 6) ?x154)))))
 (let ((?x338 (bvadd (_ bv60 6) ?x154)))
 (let ((?x7225 (stack_s x_0 x_1 x_2 x_SHA3_0 1 ?x338)))
 (let (($x1669 (not (= ((_ extract 6 6) (bvadd (_ bv1 7) (concat (_ bv0 1) ?x72))) (_ bv0 1)))))
 (let (($x2265 (forall ((w (_ BitVec 256)) )(let ((?x8359 (storage_s x_0 x_1 x_2 x_SHA3_0 0 w)))
 (let ((?x8598 (storage_s x_0 x_1 x_2 x_SHA3_0 1 w)))
 (= ?x8598 ?x8359))))
 ))
 (let (($x6459 (forall ((n (_ BitVec 6)) )(let ((?x2801 (stack_s x_0 x_1 x_2 x_SHA3_0 0 n)))
 (let ((?x1689 (stack_s x_0 x_1 x_2 x_SHA3_0 1 n)))
 (or (bvsle (bvadd (_ bv63 6) (sc_s 0)) n) (= ?x1689 ?x2801)))))
 ))
 (let (($x1581 (= ?x154 (bvadd (_ bv1 6) ?x72))))
 (let ((?x8941 (bvadd (_ bv63 6) ?x72)))
 (let ((?x6450 (stack_s x_0 x_1 x_2 x_SHA3_0 0 ?x8941)))
 (let (($x7817 (forall ((w0 (_ BitVec 256)) (w1 (_ BitVec 256)) )(let (($x5069 (= (stack_s x_0 x_1 x_2 x_SHA3_0 2 (bvadd (_ bv62 6) (sc_s 2))) w1)))
 (let (($x8554 (= (stack_s x_0 x_1 x_2 x_SHA3_0 2 (bvadd (_ bv63 6) (sc_s 2))) w0)))
 (let ((?x7798 (f_SHA3 x_0 x_1 x_2 x_SHA3_0 w0 w1)))
 (= ?x7798 (ite (and $x8554 $x5069) x_SHA3_0 (_ bv0 256)))))))
 ))
 (let (($x5303 (forall ((w (_ BitVec 256)) )(let ((?x8359 (storage_s x_0 x_1 x_2 x_SHA3_0 0 w)))
 (= ?x8359 (_ bv0 256))))
 ))
 (let (($x5613 (= ?x297 0)))
 (let (($x7737 (not $x57)))
 (let (($x10905 (= (stack_s x_0 x_1 x_2 x_SHA3_0 0 (_ bv2 6)) x_2)))
 (let (($x4342 (= (stack_s x_0 x_1 x_2 x_SHA3_0 0 (_ bv1 6)) x_1)))
 (let (($x11460 (= (stack_s x_0 x_1 x_2 x_SHA3_0 0 (_ bv0 6)) x_0)))
 (let (($x7797 (= ?x72 (_ bv3 6))))
 (and $x7797 $x11460 $x4342 $x10905 $x7737 $x5613 $x5303 $x7817 (= ?x5479 ?x6450) (= (stack_s x_0 x_1 x_2 x_SHA3_0 1 ?x8941) ?x6450) (= (used_gas_s x_0 x_1 x_2 x_SHA3_0 1) (+ 3 ?x297)) $x1581 $x6459 $x2265 (= $x189 (or $x57 $x1669 (not (bvsle (_ bv0 6) ?x8941)))) (= ?x8743 ?x7225) (= (stack_s x_0 x_1 x_2 x_SHA3_0 2 ?x338) ?x7225) $x9028 $x8741 (= (stack_s x_0 x_1 x_2 x_SHA3_0 2 ?x5347) ?x5479) (= ?x9078 (+ 3 (used_gas_s x_0 x_1 x_2 x_SHA3_0 1))) (= ?x218 (bvadd (_ bv1 6) ?x154)) $x5929 $x4959 (= $x247 $x7472) (= ?x10702 ?x7155) (= ?x7749 (+ 30 ?x9078)) (= ?x275 ?x5751) $x1334 $x552 $x5125 (= ?x6407 (stack_s x_0 x_1 x_2 x_SHA3_0 3 (bvadd (_ bv60 6) ?x275))) (= (stack_s x_0 x_1 x_2 x_SHA3_0 4 (bvadd (_ bv60 6) ?x4305)) ?x10702) $x8232 (= ?x784 (stack_s x_0 x_1 x_2 x_SHA3_0 3 (bvadd (_ bv62 6) ?x275))) (= ?x1591 (+ 3 ?x7749)) $x4967 $x8452 $x11290 $x11773 (= ?x6015 ?x784) (= ?x4251 ?x6407) (= ?x10815 (+ 3 ?x1591)) (= ?x4319 ?x4305) $x698 $x4454 $x7447 $x8123 (= (stack_s x_0 x_1 x_2 x_SHA3_0 6 (bvadd (_ bv60 6) ?x926)) ?x6015) $x1196 (= (stack_s x_0 x_1 x_2 x_SHA3_0 6 (bvadd (_ bv62 6) ?x926)) ?x4251) $x7695 $x2838 $x2654 $x3785 $x1908 (= ?x7247 (stack_t x_0 x_1 x_2 x_SHA3_0 0 (bvadd (_ bv61 6) ?x63))) (= ?x2458 (stack_t x_0 x_1 x_2 x_SHA3_0 0 (bvadd (_ bv63 6) ?x63))) (= ?x1819 (stack_t x_0 x_1 x_2 x_SHA3_0 0 (bvadd (_ bv62 6) ?x63))) (= (used_gas_t x_0 x_1 x_2 x_SHA3_0 1) (+ 3 ?x3385)) (= ?x7154 ?x63) $x7420 $x9186 (= $x8377 (or $x56 (not (bvsle (_ bv0 6) (bvadd (_ bv61 6) ?x63))))) (= ?x5627 ?x2458) (= (stack_t x_0 x_1 x_2 x_SHA3_0 2 ?x6994) ?x2458) (= (stack_t x_0 x_1 x_2 x_SHA3_0 2 ?x4585) ?x1819) (= (stack_t x_0 x_1 x_2 x_SHA3_0 2 ?x960) ?x7247) (= ?x1539 (+ 3 (used_gas_t x_0 x_1 x_2 x_SHA3_0 1))) $x44 $x11171 $x9612 (= $x2163 (or (not (bvsle (_ bv0 6) ?x6994)) $x8377 $x9824)) (= ?x4695 ?x1736) (= (stack_t x_0 x_1 x_2 x_SHA3_0 3 ?x1655) ?x1736) (= (stack_t x_0 x_1 x_2 x_SHA3_0 3 ?x7428) ?x5627) (= ?x3649 (+ 3 ?x1539)) (= ?x6438 (bvadd (_ bv1 6) ?x2714)) $x3850 $x5179 (= $x6783 $x7261) (= (stack_t x_0 x_1 x_2 x_SHA3_0 4 (bvadd (_ bv63 6) ?x4818)) ?x3419) $x11447 (= ?x4818 ?x3265) $x4177 $x6231 $x2089 $x73 $x10611 $x58 $x7629 $x8506 (not (and $x7899 $x8550 $x4404 $x11458)))))))))))))))))))))))))))))))))))))))))))))))))))))))))))))))))))))))))))))))))))))))))))))))))))))))))))))))))))))))))))))
 )
(check-sat)
(get-proof)
